sat
(:added-eqs                   11022
 :arith-bound-propagations-lp 33973
 :arith-conflicts             408
 :arith-fixed-eqs             2829
 :arith-lower                 74317
 :arith-make-feasible         28297
 :arith-max-columns           969
 :arith-max-rows              441
 :arith-offset-eqs            8294
 :arith-upper                 53738
 :binary-propagations         102180
 :conflicts                   632
 :decisions                   20860
 :del-clause                  99
 :final-checks                1
 :max-memory                  34.34
 :memory                      20.85
 :minimized-lits              2229
 :mk-bool-var                 4295
 :mk-clause                   1411
 :mk-clause-binary            16398
 :num-allocs                  85277527
 :num-checks                  1
 :propagations                114791
 :restarts                    3
 :rlimit-count                2027527
 :solve-eqs-elim-vars         355
 :solve-eqs-steps             2203
 :time                        0.86
 :total-time                  0.87)
